Route #1: 57 94 64 105 69 17 31 40 63 29
Route #2: 82 72 34 11 99 49 71
Route #3: 5 44 15 76 51 100 45 96
Route #4: 74 21 54 85 67 77 2 13
Route #5: 53 103 101 93 97 43 87 60
Route #6: 83 48 8 36 91 88 58 14
Route #7: 7 75 84 9 12 104 1
Route #8: 52 92 102 24 90 26 62
Route #9: 28 66 46 79 37 27 19 78
Route #10: 33 22
Route #11: 86 18 41 10 16 20 56
Route #12: 35 73 32 3 23 42 30 89 59
Route #13: 39 50 81 6 70 4 98 55
Route #14: 68 95 38 65 80 61 47 25
Cost 26380
